HYBRID 2.0 -- [ Lio-hybrid ] (1 Jun 2018)
>> Start of run:   2-MAY-2020  12:56:18

                           ***********************       
                           *  WELCOME TO HYBRID  *       
                           ***********************       

reinit: Reading from standard input
************************** Dump of input data file ****************************
SystemName     I7C
SystemLabel    I7C
CenterMolecule T
CG.Nick_center F
NumberOfAtoms        18
NumberOfSpecies      4
NetCharge 0.0
FixSpin  T
TotalSpin 0.0
MD.MaxForceTol    0.04 eV/Ang
NumberOfSolventAtoms   0
%block ChemicalSpeciesLabel
       1   1  H
       2   6  C
       3   7  N
       4   8  O
%endblock ChemicalSpeciesLabel
AtomicCoordinatesFormat  Ang
%block AtomicCoordinatesAndAtomicSpecies
    100.5848118      3.014114370     -3.809689386  1
    7.541899969      5.060688579     -6.289011049  1
    9.622489262      8.261885910     -2.959312291  1
    213.8063408      2.870495127      1.377610894  1
    3.452531006      4.446527343      5.637055276  1
    7.305684109      7.112931968      6.289011049  1
   10.920731627      9.469421385      4.620382216  1
    7.205528585      5.285566077     -4.291569739  2
    5.081475574      4.185745034     -3.057578088  2
    7.715754842      6.253106239     -0.175744600  2
    5.550127840      4.765891186     -0.470541993  2
    4.055353880      4.010000435      1.596819212  2
    4.671404842      4.858487803      4.068581968  2
    6.699081782      6.432630292      4.406843079  2
    8.297790720      7.245212849      2.356489417  2
   10.370821105      8.876047145      2.749552607  2
    8.728648448      6.678294786     -2.560579919  3
   11.570797673      9.762329051      1.012893606  4
%endblock AtomicCoordinatesAndAtomicSpecies
QM.level lio
MD.LengthTimeStep 0.5 fs
!MD.InitialTemperature 300 K
MD.TrajFrec 1
MD.USeSaveXV   T
MD.HYB_TSH     T
MD.TypeOfRun    verlet
MD.NumCGsteps   500
%block CutOffRadius
QM  0.2
QMMM 1000.0
MM 80
BLO 0.1
MMBLO 8.0
%endblock CutOffRadius
************************** End of input data file *****************************

reinit: -----------------------------------------------------------------------
reinit: System Name: I7C                                                        
reinit: -----------------------------------------------------------------------
reinit: System Label: I7C                 
reinit: -----------------------------------------------------------------------
 Hi Angi!

hybrid: Running with no MM atoms

read:***********************************************************************
read: Atomic-coordinates input format  =     Cartesian coordinates (in Ang)
read: Total number of electrons        =    76
 opt_scheme vale           0
read: Dynamics option                  =     Velocity Verlet MD run
read: Free energy gradient calculation on    F
read: Thermostat 0 = beren, 1 = nose, actual=    0
read: Thermostat 0 = beren, 1 = nose, actual=           0
read: Use continuation files for XV    =     T
read: Perform TSH dynamics?            =     T
read: Write coordinates each           =     1  steps
read: MM x QM steps                    =     1
read: Write forces QM-MM               =     1
read: ***********************************************************************
 reading: I7C.XV                           

ioxv: Reading coordinates and velocities from file
Namelist &lionml not found.

LIO input variables
 ! -- General and theory level: -- !
  Natom =     0, Nsol =        0, charge =     0, Nunp =     0, open =  F,
  basis_set = 6-31G                    fitting_set = DZVP Coulomb Fitting     ,
  int_basis =  T, nMax =   100, Told =  1.00E-06, Etold =  1.00E-01,
  IExch =   9, rMax =    16.000000, rMaxS =     5.000000, IGrid =  2,
  IGrid2 =  2, initial_guess =  0DBug =  F, n_ghosts =    0
 ! -- Convergence acceleration: -- !
  conver_method =  3, Gold =    10.000000, DIIS =  T, NDIIS =  15,
  hybrid_converg =  T, good_cut =  1.00E-03, DIIS_bias =     1.050000,
  DIIS_start =  1.00E-02, bDIIS_start =  1.00E-03, level_shift =  F,
  lvl_shift_en =     0.25000000, lvl_shift_cut =     0.00500000
 ! -- Input and output options: -- !
  verbose =   3, style =  F, timers =   0, writeXYZ =  T, writeForces =  F,
  dipole =  F, mulliken =  T, lowdin =  F, fukui =  F, print_coeffs =  F,
  VCInp =  F, FRestartIn = restart.in               , restart_freq =     0,
  FRestart = restart.out              , TDRestart =  F, writeDens =  F,
  TD_rst_freq =    500, gaussian_convert =  F,
  rst_dens =   0becke =  F
 ! -- TD-DFT and external field: -- !
  timeDep =  0, NTDStep =          0, TDStep =     0.00200000, propagator =  1,
  NBCH =   10, field =  F, a0 =  1000.00000000, epsilon =     1.00000000,
  Fx =     0.00000000, Fy =     0.00000000, Fz =     0.00000000, n_fields_iso =     0,
  n_fields_aniso =     0, field_iso_file = field.in                 ,
  field_aniso_file = fieldaniso.in            , td_do_pop =     0
 ! -- Effective Core Potentials: -- !
  ECPMode =  F, ECPTypes =   0, TipeECP = NOT-DEFINED              ,
  Fock_ECP_read =  F, Fock_ECP_write =  F, cutECP =  T, cut2_0 =    35.00000000,
  cut3_0 =    45.00000000, verbose_ECP =  0, ECP_debug =  F, fullTimer_ECP =  F,
  local_nonlocal =  0, ECP_full_range_int =  F
  ZListECP = 
 ! -- Minimizations and restraints: -- !
  steep =  F, minimzation_steep =     0.05000000, energy_cut =     0.00010000,
  force_cut =     0.00001000, n_min_steeps =   500, lineal_search =  T,
  n_points =     5, number_restr =     0
 ! -- CubeGen: -- !
  CubeGen_only =  F, cube_res =    40, cube_sel =     0, cube_dens =  F,
  cube_orb =  F, cube_elec =  F, cube_dens_file = dens.cube                ,
  cube_orb_file = orb.cube                 , cube_elec_file = dens.cube                
 ! -- GPU Options: -- !
  energy_all_iterations =  F, assign_all_functions =  F, remove_zero_weights =  T,
  max_function_exponent =    10, free_global_memory =     0.00000000,
  sphere_radius =     0.50000000, little_cube_size =    15.50000000,
  min_points_per_cube =     1, gpu_level =     4
 ! -- Transport and TBDFT: -- !
  transport_calc =  F, generate_rho0 =  F, driving_rate =     0.00100000,
  gate_field =  T, pop_drive =   1, save_charge_freq =     1, TBDFT_calc =     0,
  MTB =     0, alfaTB =     0.00000000, betaTB =     0.00000000,
  gammaTB =     0.00000000, start_TDTB =     0,
  end_TDTB =     0, n_biasTB =     0, driving_rateTB=    0.00000000,
  nbias=    0, TB_q_tot =   10, TB_charge_ref=    0.00000000, TB_q_told=    0.00000100
 ! -- Ehrenfest: -- !
  ndyn_steps =      0, edyn_steps =      0, nullify_forces =  F,
  wdip_nfreq =     0, wdip_fname = liorun.dip               , rsti_loads =  F,
  rsto_saves =  F, rsto_nfreq =  F, rsti_fname = liorun.rsti              ,
  rsto_fname = liorun.rsto              , eefld_on =  F, eefld_ampx =    0.00000000,
  eefld_ampy =     0.00000000, eefld_ampz =     0.00000000,
  eefld_timeamp =     0.20000000, eefld_timepos =     1.00000000,
  eefld_timegfh =  F, eefld_timegih =  F, eefld_wavelen =     0.00000000
 ! -- Fock Bias Potentials: -- !
  fockbias_is_active =  F, fockbias_is_shaped =  F, fockbias_timeamp0 =     0.00000000,
  fockbias_timegrow =     0.00000000, fockbias_timefall =     0.00000000,
  fockbias_readfile = atombias.in              
 ! -- DOS and PDOS options: -- !
  dos_calc =  F, pdos_calc =  F, pdos_allb =  F
 ! -- VdW interaction options: -- !
  dftd3 =  F

LIO initialisation.
  Using 5 CPU Threads and 0 GPU Threads.
 
 Extern Functional Module 
  The functional 'PBEH (PBE0)' is an exchange-correlation functional,
  it belongs to the Hybrid GGA' family and is defined in the reference(s):
  [1] C. Adamo and V. Barone, J. Chem. Phys. 110, 6158 (1999)
  [2] M. Ernzerhof and G. E. Scuseria, J. Chem. Phys. 110, 5029 (1999)
 
  QM atoms: 18 - MM atoms: 0
  Total number of basis: 113 (s: 47 p: 22 d: 0)
  Closed shell calculation - Occupied MO: 38

hybrid: Total Free Atoms:     18

hybrid:                 ==============================
                            Begin move =      0
                        ==============================
 Optimization level:            3
 atoms QM, MM, totals          18           0          18
 doing SCF? T
 doing forces? T
 
 LIBINT initialization
 Computing Precalculated Integrals
 # of {all, non-negligible} shell-pairs = {2415, 2232}
 
 Saving All HF type Integrals in Memory
 # of All Integrals: 19334436 (1)
 Memory requirements 0.154675 GB

Starting SCF cycles.
  Convergence criteria are: 
   1.00E-06 in Rho mean squared difference,  1.00E-01 Eh in energy differences.
  Step =    1 |Energy =   -326.378968 Eh |ΔRho =  4.11E+00 -ΔEnergy =  3.26E+02
  Step =    2 |Energy =   -278.809459 Eh |ΔRho =  2.58E+00 -ΔEnergy =  4.76E+01
  Step =    3 |Energy =   -333.622235 Eh |ΔRho =  1.63E+00 -ΔEnergy =  5.48E+01
  Step =    4 |Energy =   -359.351884 Eh |ΔRho =  9.79E-01 -ΔEnergy =  2.57E+01
  Step =    5 |Energy =   -368.727227 Eh |ΔRho =  7.15E-01 -ΔEnergy =  9.38E+00
  Step =    6 |Energy =   -378.668794 Eh |ΔRho =  5.38E-01 -ΔEnergy =  9.94E+00
  Step =    7 |Energy =   -386.599350 Eh |ΔRho =  4.85E-01 -ΔEnergy =  7.93E+00
  Step =    8 |Energy =   -398.640531 Eh |ΔRho =  2.17E-01 -ΔEnergy =  1.20E+01
  Step =    9 |Energy =   -404.544498 Eh |ΔRho =  1.07E-01 -ΔEnergy =  5.90E+00
  Step =   10 |Energy =   -408.698666 Eh |ΔRho =  4.01E-02 -ΔEnergy =  4.15E+00
  Step =   11 |Energy =   -409.644663 Eh |ΔRho =  2.03E-02 -ΔEnergy =  9.46E-01
  Step =   12 |Energy =   -410.068064 Eh |ΔRho =  1.23E-02 -ΔEnergy =  4.23E-01
  Step =   13 |Energy =   -410.266489 Eh |ΔRho =  8.06E-03 -ΔEnergy =  1.98E-01
  Step =   14 |Energy =   -410.351584 Eh |ΔRho =  5.56E-03 -ΔEnergy =  8.51E-02
  Step =   15 |Energy =   -410.378921 Eh |ΔRho =  3.98E-03 -ΔEnergy =  2.73E-02
  Step =   16 |Energy =   -410.377262 Eh |ΔRho =  2.94E-03 -ΔEnergy =  1.66E-03
  Step =   17 |Energy =   -410.361793 Eh |ΔRho =  2.23E-03 -ΔEnergy =  1.55E-02
  Step =   18 |Energy =   -410.340574 Eh |ΔRho =  1.74E-03 -ΔEnergy =  2.12E-02
  Step =   19 |Energy =   -410.317830 Eh |ΔRho =  1.40E-03 -ΔEnergy =  2.27E-02
  Step =   20 |Energy =   -410.295702 Eh |ΔRho =  1.15E-03 -ΔEnergy =  2.21E-02
  Step =   21 |Energy =   -410.275198 Eh |ΔRho =  9.70E-04 -ΔEnergy =  2.05E-02
  Step =   22 |Energy =   -410.256713 Eh |ΔRho =  7.59E-03 -ΔEnergy =  1.85E-02
  Step =   23 |Energy =   -410.127964 Eh |ΔRho =  6.87E-03 -ΔEnergy =  1.29E-01
  Step =   24 |Energy =   -410.246318 Eh |ΔRho =  7.49E-04 -ΔEnergy =  1.18E-01
  Step =   25 |Energy =   -410.231106 Eh |ΔRho =  6.20E-03 -ΔEnergy =  1.52E-02
  Step =   26 |Energy =   -410.128507 Eh |ΔRho =  5.62E-03 -ΔEnergy =  1.03E-01
  Step =   27 |Energy =   -410.222507 Eh |ΔRho =  5.90E-04 -ΔEnergy =  9.40E-02
  Step =   28 |Energy =   -410.210239 Eh |ΔRho =  5.07E-03 -ΔEnergy =  1.23E-02
  Step =   29 |Energy =   -410.128468 Eh |ΔRho =  4.60E-03 -ΔEnergy =  8.18E-02
  Step =   30 |Energy =   -410.203267 Eh |ΔRho =  4.70E-04 -ΔEnergy =  7.48E-02
  Step =   31 |Energy =   -410.193478 Eh |ΔRho =  4.16E-03 -ΔEnergy =  9.79E-03
  Step =   32 |Energy =   -410.128491 Eh |ΔRho =  3.77E-03 -ΔEnergy =  6.50E-02
  Step =   33 |Energy =   -410.187856 Eh |ΔRho =  3.78E-04 -ΔEnergy =  5.94E-02
  Step =   34 |Energy =   -410.180095 Eh |ΔRho =  3.41E-03 -ΔEnergy =  7.76E-03
  Step =   35 |Energy =   -410.128482 Eh |ΔRho =  3.10E-03 -ΔEnergy =  5.16E-02
  Step =   36 |Energy =   -410.175587 Eh |ΔRho =  3.06E-04 -ΔEnergy =  4.71E-02
  Step =   37 |Energy =   -410.169455 Eh |ΔRho =  2.81E-03 -ΔEnergy =  6.13E-03
  Step =   38 |Energy =   -410.128481 Eh |ΔRho =  2.55E-03 -ΔEnergy =  4.10E-02
  Step =   39 |Energy =   -410.165848 Eh |ΔRho =  2.48E-04 -ΔEnergy =  3.74E-02
  Step =   40 |Energy =   -410.161012 Eh |ΔRho =  2.31E-03 -ΔEnergy =  4.84E-03
  Step =   41 |Energy =   -410.128481 Eh |ΔRho =  2.10E-03 -ΔEnergy =  3.25E-02
  Step =   42 |Energy =   -410.158132 Eh |ΔRho =  2.02E-04 -ΔEnergy =  2.97E-02
  Step =   43 |Energy =   -410.154319 Eh |ΔRho =  1.90E-03 -ΔEnergy =  3.81E-03
  Step =   44 |Energy =   -410.128481 Eh |ΔRho =  1.73E-03 -ΔEnergy =  2.58E-02
  Step =   45 |Energy =   -410.152021 Eh |ΔRho =  1.65E-04 -ΔEnergy =  2.35E-02
  Step =   46 |Energy =   -410.149016 Eh |ΔRho =  1.57E-03 -ΔEnergy =  3.00E-03
  Step =   47 |Energy =   -410.128481 Eh |ΔRho =  1.43E-03 -ΔEnergy =  2.05E-02
  Step =   48 |Energy =   -410.147183 Eh |ΔRho =  1.35E-04 -ΔEnergy =  1.87E-02
  Step =   49 |Energy =   -410.144814 Eh |ΔRho =  1.29E-03 -ΔEnergy =  2.37E-03
  Step =   50 |Energy =   -410.128482 Eh |ΔRho =  1.18E-03 -ΔEnergy =  1.63E-02
  Step =   51 |Energy =   -410.143352 Eh |ΔRho =  1.11E-04 -ΔEnergy =  1.49E-02
  Step =   52 |Energy =   -410.141482 Eh |ΔRho =  1.07E-03 -ΔEnergy =  1.87E-03
  Step =   53 |Energy =   -410.128482 Eh |ΔRho =  9.72E-04 -ΔEnergy =  1.30E-02
  Step =   54 |Energy =   -410.140315 Eh |ΔRho =  9.72E-04 -ΔEnergy =  1.18E-02
  Step =   55 |Energy =   -410.128482 Eh |ΔRho =  6.16E-10 -ΔEnergy =  1.18E-02
  Convergence achieved in     55 iterations. Final energy   -410.1284815 A.U.

Final Energy Contributions in A.U.
  Total energy =  -476.442788
  One electron = -1738.245537
  Coulomb      =   776.806433
  Nuclear      =   551.310623
  Exch. Corr.  =   -50.361397
  Exact. Exc.  =   -15.952910

 *FCA is not used
 Saving density and derivatives of Ground State
 
 =======================================
         LINEAR RESPONSE - TDA
 =======================================
 
 NCO, NVIRT, M, Mlr                       38   75  113  113
 DIMENSION OF FULL MATRIX            2850
 MAX SUBSPACE                       400     
 MAX ITERATIONES                    50
 NUMBER OF INITIAL TRIALS VECTORS     12
 USING FITTING TO ERI?   F
 
 ITERATION:       1
 SUBSPACE:         12
 VECTORS INSIDE:   12
 VectorsError (crit) =       0.0077521 ( 1.00E-07) - EnergyError (crit) =       0.8622892 ( 1.00E-07)
 
 ITERATION:       2
 SUBSPACE:         15
 VECTORS INSIDE:    3
 VectorsError (crit) =       0.0003710 ( 1.00E-07) - EnergyError (crit) =       0.0100907 ( 1.00E-07)
 
 ITERATION:       3
 SUBSPACE:         18
 VECTORS INSIDE:    3
 VectorsError (crit) =       0.0000310 ( 1.00E-07) - EnergyError (crit) =       0.0004559 ( 1.00E-07)
 
 ITERATION:       4
 SUBSPACE:         21
 VECTORS INSIDE:    3
 VectorsError (crit) =       0.0000013 ( 1.00E-07) - EnergyError (crit) =       0.0000411 ( 1.00E-07)
 
 ITERATION:       5
 SUBSPACE:         24
 VECTORS INSIDE:    3
 VectorsError (crit) =       0.0000001 ( 1.00E-07) - EnergyError (crit) =       0.0000016 ( 1.00E-07)
 
 ITERATION:       6
 SUBSPACE:         27
 VECTORS INSIDE:    3
 Vector: 1 Converged
 Vector: 2 Converged
 Vector: 3 Converged
 VectorsError (crit) =       0.0000000 ( 1.00E-07) - EnergyError (crit) =       0.0000001 ( 1.00E-07)
 
 CONVERGED IN: 6 ITERATIONS
 STATE 1      ENERGY=  0.1347 Hartree,   338.327105 nm OSC=  0.0001
   36  -> 39        -0.6830364
   36  -> 41         0.1120049
  
 STATE 2      ENERGY=  0.1477 Hartree,   308.523413 nm OSC=  0.0569
   38  -> 39         0.6431645
   38  -> 40        -0.1162712
   37  -> 39        -0.1916391
   35  -> 39         0.1218424
  
 STATE 3      ENERGY=  0.1593 Hartree,   286.018645 nm OSC=  0.1588
   38  -> 39        -0.1832637
   38  -> 40        -0.1428078
   37  -> 39        -0.6226457
   35  -> 39        -0.1834849
  
 FORM RELAXED DENSITY MATRIX FOR EXCITED STATE:  2
 
 
 =======================================
             Z-VECTOR METHOD
 =======================================
 
 Start PCG loop
 Iteration =  1 Error (crit) = 6.18E-03 ( 1.00E-12)
 Iteration =  2 Error (crit) = 7.83E-04 ( 1.00E-12)
 Iteration =  3 Error (crit) = 9.47E-05 ( 1.00E-12)
 Iteration =  4 Error (crit) = 1.72E-05 ( 1.00E-12)
 Iteration =  5 Error (crit) = 2.83E-06 ( 1.00E-12)
 Iteration =  6 Error (crit) = 1.96E-07 ( 1.00E-12)
 Iteration =  7 Error (crit) = 3.49E-08 ( 1.00E-12)
 Iteration =  8 Error (crit) = 3.70E-09 ( 1.00E-12)
 Iteration =  9 Error (crit) = 6.39E-10 ( 1.00E-12)
 Iteration = 10 Error (crit) = 6.24E-11 ( 1.00E-12)
 Iteration = 11 Error (crit) = 4.10E-12 ( 1.00E-12)
 Iteration = 12 Error (crit) = 3.77E-13 ( 1.00E-12)
 Convergence achieved in 12 itertaions
 *Excited State Gradients
 Lio  E(H)  -476.29510630981633     
 Lio  E(eV)  -12960.654813529465     


hybrid: Potential Energy Decomposition (eV):
Elio :             -12960.654813529465
Etots:               -12960.654813529465

hybrid: Atomic forces (eV/Ang):
     1    0.340821   -0.290797    0.029703
     2   -1.084295    0.116527    0.143465
     3   -2.281396    1.477938   -0.450943
     4   -0.956418    0.867328   -0.418907
     5    0.718836   -0.674266    0.209497
     6   -0.156761   -0.266671    0.554539
     7   -1.549248   -0.136898    0.336099
     8    3.945162   -1.795067    0.108497
     9    0.550945   -1.825012    2.937383
    10   -2.814131   -0.716523    2.501285
    11    1.093558    0.416502   -0.974064
    12    0.339172   -1.667677    0.455826
    13   -2.712362    1.954401    0.081541
    14   -0.579380    1.323405   -1.731059
    15    1.070139   -0.444427   -0.656215
    16   -1.514498    0.399873    0.398990
    17   -0.246683    1.925393   -2.549339
    18    5.804080   -0.676548   -0.976307
-------------------------------------------
 Tot   -0.032460   -0.012521   -0.000008
-------------------------------------------
 Max              5.804080  free, atom     18
 Res              1.563395  sqrt( Sum f_i^2 / 3N )
-------------------------------------------
 Max              5.804080  cons, atom     18
 Electronic Interpolation in TSH-LIO


hybrid: Potential Energy Decomposition (eV):
Elio :             -12960.654813529465
Etots:               -12960.654813529465
 NO HOPP
hybrid: Temperature Antes:          252.019329934070839272
 K
hybrid: Kinetic Energy (eV):            0.586345652831309794
hybrid: Total Energy + Kinetic (eV):       -12960.068467876635622815
hybrid: System Temperature:          252.019329934070839272
 K
hybrid: QM SubSystem Temperature:          252.019329934070839272
 K
 recibi energia:   -476.29510630981633     

hybrid:                 ==============================
                            Begin move =      1
                        ==============================
 Optimization level:            3
 atoms QM, MM, totals          18           0          18
 doing SCF? T
 doing forces? T
 
 LIBINT initialization
 Computing Precalculated Integrals
 # of {all, non-negligible} shell-pairs = {2415, 2232}
 
 Saving All HF type Integrals in Memory
 # of All Integrals: 19334436 (1)
 Memory requirements 0.154675 GB
 Deallocate Memory Integrals in Full HF

Starting SCF cycles.
  Convergence criteria are: 
   1.00E-06 in Rho mean squared difference,  1.00E-01 Eh in energy differences.
  Step =    1 |Energy =   -410.123252 Eh |ΔRho =  1.26E-03 -ΔEnergy =  4.10E+02
  Step =    2 |Energy =   -410.116706 Eh |ΔRho =  1.16E-04 -ΔEnergy =  6.55E-03
  Step =    3 |Energy =   -410.117687 Eh |ΔRho =  5.33E-04 -ΔEnergy =  9.81E-04
  Step =    4 |Energy =   -410.120042 Eh |ΔRho =  9.83E-05 -ΔEnergy =  2.35E-03
  Step =    5 |Energy =   -410.120366 Eh |ΔRho =  4.36E-05 -ΔEnergy =  3.24E-04
  Step =    6 |Energy =   -410.120064 Eh |ΔRho =  9.89E-06 -ΔEnergy =  3.02E-04
  Step =    7 |Energy =   -410.120138 Eh |ΔRho =  3.75E-06 -ΔEnergy =  7.35E-05
  Step =    8 |Energy =   -410.120130 Eh |ΔRho =  1.74E-06 -ΔEnergy =  7.18E-06
  Step =    9 |Energy =   -410.120136 Eh |ΔRho =  4.82E-07 -ΔEnergy =  5.85E-06
  Convergence achieved in      9 iterations. Final energy   -410.1201363 A.U.
 *FCA is not used
 Saving density and derivatives of Ground State
 
 =======================================
         LINEAR RESPONSE - TDA
 =======================================
 
 NCO, NVIRT, M, Mlr                       38   75  113  113
 DIMENSION OF FULL MATRIX            2850
 MAX SUBSPACE                       400     
 MAX ITERATIONES                    50
 NUMBER OF INITIAL TRIALS VECTORS     12
 USING FITTING TO ERI?   F
 
 ITERATION:       1
 SUBSPACE:         12
 VECTORS INSIDE:   12
 VectorsError (crit) =       0.0076754 ( 1.00E-07) - EnergyError (crit) =       0.8634400 ( 1.00E-07)
 
 ITERATION:       2
 SUBSPACE:         15
 VECTORS INSIDE:    3
 VectorsError (crit) =       0.0003712 ( 1.00E-07) - EnergyError (crit) =       0.0099725 ( 1.00E-07)
 
 ITERATION:       3
 SUBSPACE:         18
 VECTORS INSIDE:    3
 VectorsError (crit) =       0.0000312 ( 1.00E-07) - EnergyError (crit) =       0.0004547 ( 1.00E-07)
 
 ITERATION:       4
 SUBSPACE:         21
 VECTORS INSIDE:    3
 VectorsError (crit) =       0.0000013 ( 1.00E-07) - EnergyError (crit) =       0.0000414 ( 1.00E-07)
 
 ITERATION:       5
 SUBSPACE:         24
 VECTORS INSIDE:    3
 VectorsError (crit) =       0.0000001 ( 1.00E-07) - EnergyError (crit) =       0.0000017 ( 1.00E-07)
 
 ITERATION:       6
 SUBSPACE:         27
 VECTORS INSIDE:    3
 Vector: 1 Converged
 Vector: 2 Converged
 VectorsError (crit) =       0.0000000 ( 1.00E-07) - EnergyError (crit) =       0.0000001 ( 1.00E-07)
 
 ITERATION:       7
 SUBSPACE:         28
 VECTORS INSIDE:    1
 Vector: 1 Converged
 Vector: 2 Converged
 Vector: 3 Converged
 VectorsError (crit) =       0.0000000 ( 1.00E-07) - EnergyError (crit) =       0.0000000 ( 1.00E-07)
 
 CONVERGED IN: 7 ITERATIONS
 STATE 1      ENERGY=  0.1336 Hartree,   341.097801 nm OSC=  0.0001
   36  -> 39         0.6825831
   36  -> 41        -0.1121885
  
 STATE 2      ENERGY=  0.1470 Hartree,   309.891561 nm OSC=  0.0567
   38  -> 39        -0.6433540
   38  -> 40         0.1153534
   37  -> 39         0.1917352
   35  -> 39        -0.1224968
  
 STATE 3      ENERGY=  0.1589 Hartree,   286.798905 nm OSC=  0.1575
   38  -> 39        -0.1829392
   38  -> 40        -0.1423058
   37  -> 39        -0.6223522
   35  -> 39        -0.1841566
  
 FORM RELAXED DENSITY MATRIX FOR EXCITED STATE:  2
 
 
 =======================================
             Z-VECTOR METHOD
 =======================================
 
 Start PCG loop
 Iteration =  1 Error (crit) = 6.30E-03 ( 1.00E-12)
 Iteration =  2 Error (crit) = 8.05E-04 ( 1.00E-12)
 Iteration =  3 Error (crit) = 1.02E-04 ( 1.00E-12)
 Iteration =  4 Error (crit) = 1.74E-05 ( 1.00E-12)
 Iteration =  5 Error (crit) = 2.95E-06 ( 1.00E-12)
 Iteration =  6 Error (crit) = 1.97E-07 ( 1.00E-12)
 Iteration =  7 Error (crit) = 3.58E-08 ( 1.00E-12)
 Iteration =  8 Error (crit) = 3.79E-09 ( 1.00E-12)
 Iteration =  9 Error (crit) = 6.56E-10 ( 1.00E-12)
 Iteration = 10 Error (crit) = 6.43E-11 ( 1.00E-12)
 Iteration = 11 Error (crit) = 4.15E-12 ( 1.00E-12)
 Iteration = 12 Error (crit) = 4.03E-13 ( 1.00E-12)
 Convergence achieved in 12 itertaions
 *Excited State Gradients
 Lio  E(H)  -476.29509691919145     
 Lio  E(eV)  -12960.654557997452     


hybrid: Potential Energy Decomposition (eV):
Elio :             -12960.654557997452
Etots:               -12960.654557997452

hybrid: Atomic forces (eV/Ang):
     1    0.406745   -0.378438    0.067306
     2   -0.764283    0.170873   -0.072399
     3   -2.255409    1.480123   -0.506866
     4   -1.032238    1.037965   -0.544546
     5    0.873311   -0.669474    0.129896
     6   -0.547467   -0.679401    1.022321
     7   -1.694955   -0.223629    0.474081
     8    3.653329   -1.789488    0.305152
     9    0.519164   -1.728109    2.858412
    10   -2.759042   -0.625486    2.375388
    11    0.893376    0.431909   -0.871001
    12    0.413144   -1.902212    0.599256
    13   -2.769148    1.942320    0.173245
    14   -0.293504    1.767603   -2.245327
    15    1.181150   -0.494473   -0.596406
    16   -0.920838    0.425253    0.212949
    17   -0.292517    1.802363   -2.402721
    18    5.354937   -0.579337   -0.978725
-------------------------------------------
 Tot   -0.034244   -0.011635    0.000016
-------------------------------------------
 Max              5.354937  free, atom     18
 Res              1.530928  sqrt( Sum f_i^2 / 3N )
-------------------------------------------
 Max              5.354937  cons, atom     18
 Electronic Interpolation in TSH-LIO


hybrid: Potential Energy Decomposition (eV):
Elio :             -12960.654557997452
Etots:               -12960.654557997452
 NO HOPP
hybrid: Temperature Antes:          252.261603120388372190
 K
hybrid: Kinetic Energy (eV):            0.586909323203864353
hybrid: Total Energy + Kinetic (eV):       -12960.067648674248630414
hybrid: System Temperature:          252.261603120388372190
 K
hybrid: QM SubSystem Temperature:          252.261603120388372190
 K
 recibi energia:   -476.29509691919145     

hybrid:                 ==============================
                            Begin move =      2
                        ==============================
 Optimization level:            3
 atoms QM, MM, totals          18           0          18
 doing SCF? T
 doing forces? T
 
 LIBINT initialization
 Computing Precalculated Integrals
 # of {all, non-negligible} shell-pairs = {2415, 2232}
 
 Saving All HF type Integrals in Memory
 # of All Integrals: 19334436 (1)
 Memory requirements 0.154675 GB
 Deallocate Memory Integrals in Full HF

Starting SCF cycles.
  Convergence criteria are: 
   1.00E-06 in Rho mean squared difference,  1.00E-01 Eh in energy differences.
  Step =    1 |Energy =   -410.115753 Eh |ΔRho =  1.22E-03 -ΔEnergy =  4.10E+02
  Step =    2 |Energy =   -410.110781 Eh |ΔRho =  1.05E-04 -ΔEnergy =  4.97E-03
  Step =    3 |Energy =   -410.111435 Eh |ΔRho =  4.95E-04 -ΔEnergy =  6.54E-04
  Step =    4 |Energy =   -410.112903 Eh |ΔRho =  9.59E-05 -ΔEnergy =  1.47E-03
  Step =    5 |Energy =   -410.113211 Eh |ΔRho =  4.28E-05 -ΔEnergy =  3.08E-04
  Step =    6 |Energy =   -410.112896 Eh |ΔRho =  1.15E-05 -ΔEnergy =  3.16E-04
  Step =    7 |Energy =   -410.112997 Eh |ΔRho =  4.25E-06 -ΔEnergy =  1.02E-04
  Step =    8 |Energy =   -410.112978 Eh |ΔRho =  1.80E-06 -ΔEnergy =  1.97E-05
  Step =    9 |Energy =   -410.112991 Eh |ΔRho =  4.80E-07 -ΔEnergy =  1.35E-05
  Convergence achieved in      9 iterations. Final energy   -410.1129911 A.U.
 *FCA is not used
 Saving density and derivatives of Ground State
 
 =======================================
         LINEAR RESPONSE - TDA
 =======================================
 
 NCO, NVIRT, M, Mlr                       38   75  113  113
 DIMENSION OF FULL MATRIX            2850
 MAX SUBSPACE                       400     
 MAX ITERATIONES                    50
 NUMBER OF INITIAL TRIALS VECTORS     12
 USING FITTING TO ERI?   F
 
 ITERATION:       1
 SUBSPACE:         12
 VECTORS INSIDE:   12
 VectorsError (crit) =       0.0075669 ( 1.00E-07) - EnergyError (crit) =       0.8646886 ( 1.00E-07)
 
 ITERATION:       2
 SUBSPACE:         15
 VECTORS INSIDE:    3
 VectorsError (crit) =       0.0003722 ( 1.00E-07) - EnergyError (crit) =       0.0098043 ( 1.00E-07)
 
 ITERATION:       3
 SUBSPACE:         18
 VECTORS INSIDE:    3
 VectorsError (crit) =       0.0000312 ( 1.00E-07) - EnergyError (crit) =       0.0004537 ( 1.00E-07)
 
 ITERATION:       4
 SUBSPACE:         21
 VECTORS INSIDE:    3
 VectorsError (crit) =       0.0000013 ( 1.00E-07) - EnergyError (crit) =       0.0000417 ( 1.00E-07)
 
 ITERATION:       5
 SUBSPACE:         24
 VECTORS INSIDE:    3
 VectorsError (crit) =       0.0000001 ( 1.00E-07) - EnergyError (crit) =       0.0000017 ( 1.00E-07)
 
 ITERATION:       6
 SUBSPACE:         27
 VECTORS INSIDE:    3
 Vector: 1 Converged
 Vector: 2 Converged
 VectorsError (crit) =       0.0000000 ( 1.00E-07) - EnergyError (crit) =       0.0000001 ( 1.00E-07)
 
 ITERATION:       7
 SUBSPACE:         28
 VECTORS INSIDE:    1
 Vector: 1 Converged
 Vector: 2 Converged
 Vector: 3 Converged
 VectorsError (crit) =       0.0000000 ( 1.00E-07) - EnergyError (crit) =       0.0000000 ( 1.00E-07)
 
 CONVERGED IN: 7 ITERATIONS
 STATE 1      ENERGY=  0.1324 Hartree,   344.143479 nm OSC=  0.0001
   36  -> 39        -0.6821023
   36  -> 41         0.1120135
  
 STATE 2      ENERGY=  0.1461 Hartree,   311.779580 nm OSC=  0.0565
   38  -> 39         0.6446530
   38  -> 40        -0.1137364
   37  -> 39        -0.1881480
   35  -> 39         0.1240024
  
 STATE 3      ENERGY=  0.1585 Hartree,   287.523025 nm OSC=  0.1554
   38  -> 39         0.1788561
   38  -> 40         0.1429770
   37  -> 39         0.6228056
   35  -> 39         0.1847342
  
 FORM RELAXED DENSITY MATRIX FOR EXCITED STATE:  2
 
 
 =======================================
             Z-VECTOR METHOD
 =======================================
 
 Start PCG loop
 Iteration =  1 Error (crit) = 6.44E-03 ( 1.00E-12)
 Iteration =  2 Error (crit) = 8.29E-04 ( 1.00E-12)
 Iteration =  3 Error (crit) = 1.10E-04 ( 1.00E-12)
 Iteration =  4 Error (crit) = 1.76E-05 ( 1.00E-12)
 Iteration =  5 Error (crit) = 3.05E-06 ( 1.00E-12)
 Iteration =  6 Error (crit) = 1.97E-07 ( 1.00E-12)
 Iteration =  7 Error (crit) = 3.59E-08 ( 1.00E-12)
 Iteration =  8 Error (crit) = 3.81E-09 ( 1.00E-12)
 Iteration =  9 Error (crit) = 6.62E-10 ( 1.00E-12)
 Iteration = 10 Error (crit) = 6.45E-11 ( 1.00E-12)
 Iteration = 11 Error (crit) = 4.22E-12 ( 1.00E-12)
 Iteration = 12 Error (crit) = 4.35E-13 ( 1.00E-12)
 Convergence achieved in 12 itertaions
 *Excited State Gradients
 Lio  E(H)  -476.29623660385153     
 Lio  E(eV)  -12960.685570408203     


hybrid: Potential Energy Decomposition (eV):
Elio :             -12960.685570408203
Etots:               -12960.685570408203

hybrid: Atomic forces (eV/Ang):
     1    0.466226   -0.458114    0.097671
     2   -0.358365    0.240680   -0.322632
     3   -2.075454    1.381055   -0.519406
     4   -1.010546    1.075918   -0.588599
     5    0.949521   -0.638787    0.061007
     6   -0.881394   -1.038108    1.414110
     7   -1.774844   -0.259989    0.541332
     8    3.252398   -1.797150    0.544327
     9    0.515718   -1.626253    2.760546
    10   -2.682671   -0.506473    2.205766
    11    0.666848    0.422575   -0.725984
    12    0.392362   -1.985074    0.642436
    13   -2.736565    1.880959    0.268516