
#FDF: Opened INPUT_TMP.1179807248 for input. Unit: 11

fdf-debug              0     # Default value
SystemName     cut5                                                                                                                                
SystemLabel     cut5                                                                                                                                
NumberMPInodes              1     # Default value
NumberOfAtoms                        6
NumberOfSolventAtoms                        0
NumberOfSpecies                        3
AtomicCoordinatesFormat     Ang                                                                                                                                 

%block AtomicCoordinatesAndAtomicSpecies                                       
  35.68700  34.50600  35.99000         1                                       
  35.98000  34.12000  35.08700         2                                       
  36.08900  35.73700  36.24600         2                                       
  34.74800  34.44800  36.44800         2                                       
  33.49600  36.20600  33.44400         3                                       
  36.78400  33.67400  37.23300         3                                       
%endblock AtomicCoordinatesAndAtomicSpecies                                    
 

%block ChemicalSpeciesLabel                                                    
       1   6  C                                                                
       2   1  H                                                                
       3  17  Cl                                                               
%endblock ChemicalSpeciesLabel                                                 
 
NetCharge         -1.000000000    
TotalSpin          0.000000000    
LinkAtoms              0     # Default value
WriIniParLas              F     # Default value
MD.TypeOfRun     CG                                                                                                                                  
MD.UseSaveCG              T
MD.UseSaveXV              T
MD.NumCGsteps                        0
MD.MaxCGDispl         0.2000000000     Bohr     # Default value
MD.MaxForceTol         0.1555739508E-02    Ry/Bohr
# Above item originally: MD.MaxForceTol         0.4000000000E-01 eV/Ang    
MD.InitialTimeStep              1     # Default value
MD.FinalTimeStep              1     # Default value
MD.LengthTimeStep         0.1000000015     fs     # Default value
MD.Quench              F     # Default value
MD.InitialTemperature          300.0000000     K     # Default value
MD.TargetTemperature          300.0000000     K     # Default value
MD.NoseMass          100.0000000     eV*fs**2     # Default value
MD.FCDispl         0.4000000000E-01 Bohr     # Default value
MD.FCfirst              1     # Default value
MD.FClast              6     # Default value
WriteCoordinates              1     # Default value
WriteMullikenPop                        0
MD.MMxQMsteps              1     # Default value
WriteForcesQMMM              1     # Default value
SystemLabel     cut5                                                                                                                                
SystemLabel     cut5                                                                                                                                
SystemLabel     cut5                                                                                                                                
