SystemName     cut5            
SystemLabel    cut5            
CenterMolecule T    
NumberOfAtoms        100
NumberOfSpecies      1
NetCharge 0.0       
FixSpin  T          
TotalSpin 0.0       
MD.MaxForceTol    0.04 eV/Ang 
NumberOfSolventAtoms      0

%block ChemicalSpeciesLabel   
       1   30  Zn
%endblock ChemicalSpeciesLabel
 
AtomicCoordinatesFormat  Ang  
%block AtomicCoordinatesAndAtomicSpecies
2.000 0.000 0.000	1
4.000 0.000 0.000	1
6.000 0.000 0.000	1
8.000 0.000 0.000	1
10.000 0.000 0.000	1
12.000 0.000 0.000	1
14.000 0.000 0.000	1
16.000 0.000 0.000	1
18.000 0.000 0.000	1
20.000 0.000 0.000	1
22.000 0.000 0.000	1
24.000 0.000 0.000	1
26.000 0.000 0.000	1
28.000 0.000 0.000	1
30.000 0.000 0.000	1
32.000 0.000 0.000	1
34.000 0.000 0.000	1
36.000 0.000 0.000	1
38.000 0.000 0.000	1
40.000 0.000 0.000	1
42.000 0.000 0.000	1
44.000 0.000 0.000	1
46.000 0.000 0.000	1
48.000 0.000 0.000	1
50.000 0.000 0.000	1
52.000 0.000 0.000	1
54.000 0.000 0.000	1
56.000 0.000 0.000	1
58.000 0.000 0.000	1
60.000 0.000 0.000	1
62.000 0.000 0.000	1
64.000 0.000 0.000	1
66.000 0.000 0.000	1
68.000 0.000 0.000	1
70.000 0.000 0.000	1
72.000 0.000 0.000	1
74.000 0.000 0.000	1
76.000 0.000 0.000	1
78.000 0.000 0.000	1
80.000 0.000 0.000	1
82.000 0.000 0.000	1
84.000 0.000 0.000	1
86.000 0.000 0.000	1
88.000 0.000 0.000	1
90.000 0.000 0.000	1
92.000 0.000 0.000	1
94.000 0.000 0.000	1
96.000 0.000 0.000	1
98.000 0.000 0.000	1
100.000 0.000 0.000	1
102.000 0.000 0.000	1
104.000 0.000 0.000	1
106.000 0.000 0.000	1
108.000 0.000 0.000	1
110.000 0.000 0.000	1
112.000 0.000 0.000	1
114.000 0.000 0.000	1
116.000 0.000 0.000	1
118.000 0.000 0.000	1
120.000 0.000 0.000	1
122.000 0.000 0.000	1
124.000 0.000 0.000	1
126.000 0.000 0.000	1
128.000 0.000 0.000	1
130.000 0.000 0.000	1
132.000 0.000 0.000	1
134.000 0.000 0.000	1
136.000 0.000 0.000	1
138.000 0.000 0.000	1
140.000 0.000 0.000	1
142.000 0.000 0.000	1
144.000 0.000 0.000	1
146.000 0.000 0.000	1
148.000 0.000 0.000	1
150.000 0.000 0.000	1
152.000 0.000 0.000	1
154.000 0.000 0.000	1
156.000 0.000 0.000	1
158.000 0.000 0.000	1
160.000 0.000 0.000	1
162.000 0.000 0.000	1
164.000 0.000 0.000	1
166.000 0.000 0.000	1
168.000 0.000 0.000	1
170.000 0.000 0.000	1
172.000 0.000 0.000	1
174.000 0.000 0.000	1
176.000 0.000 0.000	1
178.000 0.000 0.000	1
180.000 0.000 0.000	1
182.000 0.000 0.000	1
184.000 0.000 0.000	1
186.000 0.000 0.000	1
188.000 0.000 0.000	1
190.000 0.000 0.000	1
192.000 0.000 0.000	1
194.000 0.000 0.000	1
196.000 0.000 0.000	1
198.000 0.000 0.000	1
200.000 0.000 0.000	1
%endblock AtomicCoordinatesAndAtomicSpecies
 
%block SoluteAtomTypes   
%endblock SoluteAtomTypes
 
SpinPolarized        T    
MaxSCFIterations    80    
DM.MixingWeight      0.1  
DM.NumberPulay       3    
DM.UseSaveDM   T          
MD.USeSaveXV   T          
MD.UseSaveCG   T          
LongOutput    F           
 
MD.TypeOfRun    CG        
MD.NumCGsteps   0
 
%block CutOffRadius       
QM  0.2                   
QMMM 100.0                 
MM 80.0                    
BLO 80.0        
MMBLO 0.0           
%endblock CutOffRadius    
 
 
%block SolventInput   
%endblock SolventInput
